experiment/data/hgs-res/Vrp-Set-A-n38/Vrp-Set-A-n38-hgs/0.hgs1.vrp
NAME : 0
COMMENT : CVRP Instance
TYPE : CVRP
DIMENSION : 38
EDGE_WEIGHT_TYPE : EUC_2D
CAPACITY : 100
NODE_COORD_SECTION
1	69.0	63.0
2	3.0	35.0
3	71.0	79.0
4	1.0	47.0
5	11.0	15.0
6	87.0	23.0
7	37.0	33.0
8	87.0	29.0
9	35.0	81.0
10	55.0	71.0
11	41.0	51.0
12	93.0	9.0
13	11.0	49.0
14	75.0	89.0
15	75.0	69.0
16	97.0	95.0
17	15.0	13.0
18	63.0	95.0
19	47.0	41.0
20	45.0	41.0
21	89.0	43.0
22	45.0	59.0
23	95.0	23.0
24	19.0	83.0
25	71.0	69.0
26	27.0	19.0
27	17.0	57.0
28	93.0	15.0
29	59.0	29.0
30	35.0	39.0
31	33.0	51.0
32	61.0	21.0
33	89.0	53.0
34	33.0	85.0
35	37.0	37.0
36	21.0	91.0
37	67.0	95.0
38	61.0	15.0
DEMAND_SECTION
1	0
2	12
3	5
4	8
5	12
6	18
7	12
8	11
9	19
10	23
11	8
12	25
13	1
14	5
15	17
16	13
17	9
18	13
19	19
20	5
21	26
22	9
23	20
24	21
25	8
26	12
27	13
28	12
29	4
30	19
31	25
32	7
33	3
34	2
35	24
36	13
37	14
38	14
DEPOT_SECTION
1
-1
EOF
