experiment/data/hgs-res/Vrp-Set-A-n38/Vrp-Set-A-n38-hgs/0.hgs1.log
=========== Algorithm Parameters =================
---- nbGranular        is set to 20
---- mu                is set to 25
---- lambda            is set to 40
---- nbElite           is set to 4
---- nbClose           is set to 5
---- targetFeasible    is set to 0.2
---- seed              is set to 1234
---- nbIter            is set to 20000
---- timeLimit         is set to 0
---- useSwapStar       is set to 1
==================================================
----- READING INSTANCE: baseline_results/cvrp_hgs/Vrp-Set-A-n38/Vrp-Set-A-n38-hgs/0.hgs1.vrp
----- FLEET SIZE WAS NOT SPECIFIED: DEFAULT INITIALIZATION TO 10 VEHICLES
----- INSTANCE SUCCESSFULLY LOADED WITH 37 CLIENTS AND 10 VEHICLES
----- BUILDING INITIAL POPULATION
----- STARTING GENETIC ALGORITHM
It      0      2 | T(s) 0.03 | Feas 51 733.95 739.95 | Inf 18 734.94 747.57 | Div 0.29 0.35 | Feas 0.82 1.00 | Pen 3.84 0.85
It    500    502 | T(s) 0.15 | Feas 58 733.95 739.18 | Inf 55 723.07 729.06 | Div 0.29 0.17 | Feas 0.10 1.00 | Pen 2.41 0.38
It   1000   1002 | T(s) 0.27 | Feas 46 733.95 738.43 | Inf 37 724.92 733.77 | Div 0.31 0.27 | Feas 0.13 1.00 | Pen 2.50 0.17
It   1500   1502 | T(s) 0.40 | Feas 49 733.95 739.52 | Inf 48 718.59 727.77 | Div 0.33 0.23 | Feas 0.30 1.00 | Pen 2.17 0.10
It   2000   2002 | T(s) 0.53 | Feas 60 733.95 737.05 | Inf 33 718.59 727.89 | Div 0.29 0.26 | Feas 0.19 1.00 | Pen 2.17 0.10
It   2500   2502 | T(s) 0.65 | Feas 63 733.95 737.20 | Inf 57 727.83 732.93 | Div 0.28 0.17 | Feas 0.15 1.00 | Pen 2.66 0.10
It   3000   3002 | T(s) 0.77 | Feas 29 733.95 746.58 | Inf 62 721.12 725.22 | Div 0.43 0.11 | Feas 0.11 1.00 | Pen 2.30 0.10
It   3500   3502 | T(s) 0.89 | Feas 42 733.95 742.14 | Inf 39 716.06 727.44 | Div 0.35 0.26 | Feas 0.28 1.00 | Pen 2.04 0.10
It   4000   4002 | T(s) 1.02 | Feas 61 733.95 738.97 | Inf 60 717.62 721.79 | Div 0.29 0.10 | Feas 0.20 1.00 | Pen 2.12 0.10
It   4500   4502 | T(s) 1.15 | Feas 47 733.95 739.77 | Inf 45 718.42 726.66 | Div 0.33 0.21 | Feas 0.21 1.00 | Pen 2.16 0.10
It   5000   5002 | T(s) 1.28 | Feas 42 733.95 739.71 | Inf 36 719.24 729.57 | Div 0.34 0.27 | Feas 0.27 1.00 | Pen 2.20 0.10
It   5500   5502 | T(s) 1.40 | Feas 53 733.95 737.36 | Inf 62 720.08 726.26 | Div 0.30 0.15 | Feas 0.23 1.00 | Pen 2.25 0.10
It   6000   6002 | T(s) 1.52 | Feas 60 733.95 736.85 | Inf 35 715.14 730.17 | Div 0.27 0.31 | Feas 0.37 1.00 | Pen 1.99 0.10
It   6500   6502 | T(s) 1.65 | Feas 65 733.95 737.30 | Inf 54 716.67 722.16 | Div 0.26 0.13 | Feas 0.18 1.00 | Pen 2.07 0.10
It   7000   7002 | T(s) 1.78 | Feas 29 733.95 745.79 | Inf 47 725.47 731.76 | Div 0.42 0.18 | Feas 0.15 1.00 | Pen 2.53 0.10
It   7500   7502 | T(s) 1.90 | Feas 38 733.95 742.26 | Inf 28 719.07 732.04 | Div 0.37 0.32 | Feas 0.17 1.00 | Pen 2.20 0.10
It   8000   8002 | T(s) 2.03 | Feas 46 733.95 741.68 | Inf 51 719.91 726.64 | Div 0.34 0.17 | Feas 0.16 1.00 | Pen 2.24 0.10
It   8500   8502 | T(s) 2.16 | Feas 33 733.95 746.43 | Inf 46 720.76 727.68 | Div 0.40 0.18 | Feas 0.21 1.00 | Pen 2.28 0.10
It   9000   9002 | T(s) 2.28 | Feas 41 733.95 740.47 | Inf 26 720.76 737.45 | Div 0.35 0.37 | Feas 0.24 1.00 | Pen 2.28 0.10
It   9500   9502 | T(s) 2.40 | Feas 55 733.95 739.79 | Inf 50 721.63 729.79 | Div 0.30 0.21 | Feas 0.18 1.00 | Pen 2.33 0.10
It  10000  10002 | T(s) 2.53 | Feas 29 733.95 745.52 | Inf 35 716.51 728.33 | Div 0.42 0.27 | Feas 0.27 1.00 | Pen 2.06 0.10
It  10500  10502 | T(s) 2.66 | Feas 60 733.95 737.18 | Inf 62 717.29 721.14 | Div 0.30 0.09 | Feas 0.34 1.00 | Pen 2.10 0.10
It  11000  11002 | T(s) 2.78 | Feas 26 733.95 751.76 | Inf 37 718.90 728.38 | Div 0.46 0.25 | Feas 0.25 1.00 | Pen 2.19 0.10
It  11500  11502 | T(s) 2.91 | Feas 57 733.95 738.25 | Inf 30 727.21 735.71 | Div 0.29 0.30 | Feas 0.12 1.00 | Pen 2.62 0.10
It  12000  12002 | T(s) 3.03 | Feas 64 733.95 738.91 | Inf 43 714.10 725.33 | Div 0.29 0.24 | Feas 0.32 1.00 | Pen 1.93 0.10
It  12500  12502 | T(s) 3.16 | Feas 39 733.95 741.78 | Inf 28 715.58 735.59 | Div 0.37 0.37 | Feas 0.28 1.00 | Pen 2.01 0.10
It  13000  13002 | T(s) 3.29 | Feas 41 733.95 742.56 | Inf 63 717.13 721.67 | Div 0.36 0.12 | Feas 0.26 1.00 | Pen 2.09 0.10
It  13500  13502 | T(s) 3.42 | Feas 29 733.95 748.13 | Inf 47 718.73 726.14 | Div 0.43 0.20 | Feas 0.32 1.00 | Pen 2.18 0.10
It  14000  14002 | T(s) 3.55 | Feas 35 733.95 741.86 | Inf 49 720.40 727.13 | Div 0.35 0.18 | Feas 0.08 1.00 | Pen 2.27 0.10
It  14500  14502 | T(s) 3.67 | Feas 64 733.95 736.68 | Inf 35 721.26 731.66 | Div 0.26 0.27 | Feas 0.24 1.00 | Pen 2.31 0.10
It  15000  15002 | T(s) 3.79 | Feas 64 733.95 737.71 | Inf 47 714.68 725.98 | Div 0.29 0.24 | Feas 0.30 1.00 | Pen 1.96 0.10
It  15500  15502 | T(s) 3.92 | Feas 38 733.95 743.08 | Inf 44 716.19 724.80 | Div 0.38 0.21 | Feas 0.26 1.00 | Pen 2.04 0.10
It  16000  16002 | T(s) 4.05 | Feas 45 733.95 740.77 | Inf 37 724.88 731.75 | Div 0.33 0.23 | Feas 0.13 1.00 | Pen 2.50 0.10
It  16500  16502 | T(s) 4.18 | Feas 51 733.95 738.09 | Inf 52 718.56 725.99 | Div 0.31 0.17 | Feas 0.39 1.00 | Pen 2.17 0.10
It  17000  17002 | T(s) 4.30 | Feas 39 733.95 742.71 | Inf 49 719.39 728.51 | Div 0.36 0.22 | Feas 0.17 1.00 | Pen 2.21 0.10
It  17500  17502 | T(s) 4.43 | Feas 49 733.95 739.20 | Inf 36 719.39 730.12 | Div 0.32 0.26 | Feas 0.24 1.00 | Pen 2.21 0.10
It  18000  18002 | T(s) 4.56 | Feas 26 733.95 752.36 | Inf 60 721.09 725.06 | Div 0.45 0.10 | Feas 0.09 1.00 | Pen 2.30 0.10
It  18500  18502 | T(s) 4.77 | Feas 45 733.95 740.37 | Inf 32 722.85 734.45 | Div 0.33 0.31 | Feas 0.10 1.00 | Pen 2.39 0.10
It  19000  19002 | T(s) 4.89 | Feas 44 733.95 741.04 | Inf 26 723.76 743.56 | Div 0.33 0.40 | Feas 0.08 1.00 | Pen 2.44 0.10
It  19500  19502 | T(s) 5.02 | Feas 64 733.95 737.32 | Inf 47 718.40 726.03 | Div 0.28 0.20 | Feas 0.28 1.00 | Pen 2.16 0.10
----- GENETIC ALGORITHM FINISHED AFTER 20000 ITERATIONS. TIME SPENT: 5.14833
----- WRITING BEST SOLUTION IN : baseline_results/cvrp_hgs/Vrp-Set-A-n38/Vrp-Set-A-n38-hgs/0.hgs1.tour
