experiment/data/hgs-res/Vrp-Set-A-n38/Vrp-Set-A-n38-hgs/0.hgs1.tour
Route #1: 18 6 25 16 4 1 3 12 26
Route #2: 19 29 34 28 31 37 20
Route #3: 32 22 27 11 5 7
Route #4: 9 17 36 13 15 2 14 24
Route #5: 8 33 35 23 30 10 21
Cost 733.946
